(set-info :smt-lib-version 2.6)
(set-logic UF)
(set-info :source |Benchmarks from the paper: "Extending Sledgehammer with SMT Solvers" by Jasmin Blanchette, Sascha Bohme, and Lawrence C. Paulson, CADE 2011.  Translated to SMT2 by Andrew Reynolds and Morgan Deters.|)
(set-info :category "industrial")
(set-info :status unknown)
(declare-sort S1 0)
(declare-sort S2 0)
(declare-sort S3 0)
(declare-sort S4 0)
(declare-sort S5 0)
(declare-sort S6 0)
(declare-sort S7 0)
(declare-sort S8 0)
(declare-sort S9 0)
(declare-sort S10 0)
(declare-sort S11 0)
(declare-sort S12 0)
(declare-sort S13 0)
(declare-sort S14 0)
(declare-sort S15 0)
(declare-sort S16 0)
(declare-sort S17 0)
(declare-sort S18 0)
(declare-sort S19 0)
(declare-sort S20 0)
(declare-sort S21 0)
(declare-sort S22 0)
(declare-sort S23 0)
(declare-sort S24 0)
(declare-sort S25 0)
(declare-sort S26 0)
(declare-sort S27 0)
(declare-sort S28 0)
(declare-sort S29 0)
(declare-sort S30 0)
(declare-sort S31 0)
(declare-sort S32 0)
(declare-sort S33 0)
(declare-sort S34 0)
(declare-sort S35 0)
(declare-sort S36 0)
(declare-sort S37 0)
(declare-sort S38 0)
(declare-sort S39 0)
(declare-sort S40 0)
(declare-sort S41 0)
(declare-sort S42 0)
(declare-sort S43 0)
(declare-sort S44 0)
(declare-sort S45 0)
(declare-sort S46 0)
(declare-sort S47 0)
(declare-sort S48 0)
(declare-sort S49 0)
(declare-sort S50 0)
(declare-sort S51 0)
(declare-sort S52 0)
(declare-sort S53 0)
(declare-sort S54 0)
(declare-sort S55 0)
(declare-sort S56 0)
(declare-sort S57 0)
(declare-fun f1 () S1)
(declare-fun f2 () S1)
(declare-fun f3 (S3 S2) S1)
(declare-fun f4 () S3)
(declare-fun f5 (S4 S3) S1)
(declare-fun f6 (S5 S2) S4)
(declare-fun f7 () S5)
(declare-fun f8 (S6 S7) S3)
(declare-fun f9 () S6)
(declare-fun f10 () S7)
(declare-fun f11 (S8 S9) S3)
(declare-fun f12 (S10 S9) S8)
(declare-fun f13 (S11 S12) S10)
(declare-fun f14 () S11)
(declare-fun f15 () S12)
(declare-fun f16 () S9)
(declare-fun f17 (S12 S13) S14)
(declare-fun f18 (S15 S12) S14)
(declare-fun f19 (S16 S1) S15)
(declare-fun f20 () S16)
(declare-fun f21 () S12)
(declare-fun f22 (S14 S17) S1)
(declare-fun f23 (S18 S13) S1)
(declare-fun f24 (S19 S13) S18)
(declare-fun f25 () S19)
(declare-fun f26 () S13)
(declare-fun f27 (S20 S2) S12)
(declare-fun f28 () S20)
(declare-fun f29 (S21 S18) S1)
(declare-fun f30 (S22 S13) S21)
(declare-fun f31 () S22)
(declare-fun f32 (S23 S2) S13)
(declare-fun f33 () S23)
(declare-fun f34 (S24 S18) S18)
(declare-fun f35 (S25 S13) S24)
(declare-fun f36 () S25)
(declare-fun f37 () S13)
(declare-fun f38 (S26 S13) S13)
(declare-fun f39 () S26)
(declare-fun f40 () S13)
(declare-fun f41 () S18)
(declare-fun f42 (S9 S13) S12)
(declare-fun f43 (S27 S2) S9)
(declare-fun f44 () S27)
(declare-fun f45 () S1)
(declare-fun f46 () S2)
(declare-fun f47 (S28 S17) S2)
(declare-fun f48 (S29 S13) S28)
(declare-fun f49 () S29)
(declare-fun f50 (S30 S17) S17)
(declare-fun f51 (S31 S13) S30)
(declare-fun f52 () S31)
(declare-fun f53 (S32 S3) S3)
(declare-fun f54 () S32)
(declare-fun f55 (S33 S7) S7)
(declare-fun f56 (S34 S2) S33)
(declare-fun f57 () S34)
(declare-fun f58 (S37 S35) S35)
(declare-fun f59 (S38 S36) S37)
(declare-fun f60 () S38)
(declare-fun f61 (S40 S36) S36)
(declare-fun f62 (S41 S39) S40)
(declare-fun f63 () S41)
(declare-fun f64 (S42 S2) S14)
(declare-fun f65 () S42)
(declare-fun f66 () S13)
(declare-fun f67 () S17)
(declare-fun f68 () S26)
(declare-fun f69 (S43 S44) S1)
(declare-fun f70 (S45 S36) S43)
(declare-fun f71 () S45)
(declare-fun f72 (S46 S35) S44)
(declare-fun f73 () S46)
(declare-fun f74 (S47 S48) S1)
(declare-fun f75 (S49 S39) S47)
(declare-fun f76 () S49)
(declare-fun f77 (S50 S36) S48)
(declare-fun f78 () S50)
(declare-fun f79 (S51 S17) S18)
(declare-fun f80 () S51)
(declare-fun f81 () S23)
(declare-fun f82 (S52 S44) S44)
(declare-fun f83 (S53 S36) S52)
(declare-fun f84 () S53)
(declare-fun f85 (S54 S48) S48)
(declare-fun f86 (S55 S39) S54)
(declare-fun f87 () S55)
(declare-fun f88 (S56 S2) S32)
(declare-fun f89 () S56)
(declare-fun f90 (S7) S57)
(declare-fun f91 () S57)
(declare-fun f92 () S38)
(declare-fun f93 () S41)
(declare-fun f94 () S31)
(declare-fun f95 () S34)
(declare-fun f96 () S18)
(declare-fun f97 () S33)
(assert (not (= f1 f2)))
(assert (forall ((?v0 S2)) (= (= (f3 f4 ?v0) f1) (and (= (f5 (f6 f7 ?v0) (f8 f9 f10)) f1) (= (f3 (f11 (f12 (f13 f14 f15) f16) f16) ?v0) f1)))))
(assert (forall ((?v0 S13)) (= (f17 f15 ?v0) (f18 (f19 f20 f2) f21))))
(assert (forall ((?v0 S13) (?v1 S17)) (= (= (f22 (f17 f21 ?v0) ?v1) f1) (= (f23 (f24 f25 ?v0) f26) f1))))
(assert (forall ((?v0 S2) (?v1 S13) (?v2 S17)) (= (= (f22 (f17 (f27 f28 ?v0) ?v1) ?v2) f1) (= (f29 (f30 f31 (f32 f33 ?v0)) (f34 (f35 f36 f37) (f34 (f35 f36 (f38 f39 f40)) f41))) f1))))
(assert (forall ((?v0 S2) (?v1 S13) (?v2 S13) (?v3 S17)) (= (= (f22 (f17 (f42 (f43 f44 ?v0) ?v1) ?v2) ?v3) f1) (= (f32 f33 ?v0) f37))))
(assert (forall ((?v0 S13) (?v1 S13) (?v2 S17)) (= (= (f22 (f17 (f42 f16 ?v0) ?v1) ?v2) f1) false)))
(assert (not (= f45 f1)))
(assert (forall ((?v0 S13) (?v1 S17)) (=> (= f46 (f47 (f48 f49 ?v0) (f50 (f51 f52 (f38 f39 f40)) ?v1))) (= f45 f1))))
(assert (= (f5 (f6 f7 f46) (f53 f54 f4)) f1))
(assert (forall ((?v0 S2)) (let ((?v_0 (f43 f44 ?v0))) (=> (= (f5 (f6 f7 ?v0) (f8 f9 f10)) f1) (= (f3 (f11 (f12 (f13 f14 (f27 f28 ?v0)) ?v_0) ?v_0) ?v0) f1)))))
(assert (= (f5 (f6 f7 f46) (f8 f9 f10)) f1))
(assert (forall ((?v0 S13) (?v1 S17) (?v2 S13) (?v3 S17)) (= (= (f47 (f48 f49 ?v0) ?v1) (f47 (f48 f49 ?v2) ?v3)) (and (= ?v0 ?v2) (= ?v1 ?v3)))))
(assert (= (= f40 f40) true))
(assert (forall ((?v0 S13)) (= (f38 f39 ?v0) ?v0)))
(assert (forall ((?v0 S7) (?v1 S2)) (not (= ?v0 (f55 (f56 f57 ?v1) ?v0)))))
(assert (forall ((?v0 S17) (?v1 S13)) (not (= ?v0 (f50 (f51 f52 ?v1) ?v0)))))
(assert (forall ((?v0 S35) (?v1 S36)) (not (= ?v0 (f58 (f59 f60 ?v1) ?v0)))))
(assert (forall ((?v0 S36) (?v1 S39)) (not (= ?v0 (f61 (f62 f63 ?v1) ?v0)))))
(assert (forall ((?v0 S2) (?v1 S7)) (not (= (f55 (f56 f57 ?v0) ?v1) ?v1))))
(assert (forall ((?v0 S13) (?v1 S17)) (not (= (f50 (f51 f52 ?v0) ?v1) ?v1))))
(assert (forall ((?v0 S36) (?v1 S35)) (not (= (f58 (f59 f60 ?v0) ?v1) ?v1))))
(assert (forall ((?v0 S39) (?v1 S36)) (not (= (f61 (f62 f63 ?v0) ?v1) ?v1))))
(assert (forall ((?v0 S2) (?v1 S7) (?v2 S2) (?v3 S7)) (= (= (f55 (f56 f57 ?v0) ?v1) (f55 (f56 f57 ?v2) ?v3)) (and (= ?v0 ?v2) (= ?v1 ?v3)))))
(assert (forall ((?v0 S13) (?v1 S17) (?v2 S13) (?v3 S17)) (= (= (f50 (f51 f52 ?v0) ?v1) (f50 (f51 f52 ?v2) ?v3)) (and (= ?v0 ?v2) (= ?v1 ?v3)))))
(assert (forall ((?v0 S36) (?v1 S35) (?v2 S36) (?v3 S35)) (= (= (f58 (f59 f60 ?v0) ?v1) (f58 (f59 f60 ?v2) ?v3)) (and (= ?v0 ?v2) (= ?v1 ?v3)))))
(assert (forall ((?v0 S39) (?v1 S36) (?v2 S39) (?v3 S36)) (= (= (f61 (f62 f63 ?v0) ?v1) (f61 (f62 f63 ?v2) ?v3)) (and (= ?v0 ?v2) (= ?v1 ?v3)))))
(assert (forall ((?v0 S13) (?v1 S13)) (let ((?v_0 (f38 f39 ?v0))) (= (= ?v_0 ?v1) (= ?v1 ?v_0)))))
(assert (forall ((?v0 S13) (?v1 S13)) (= (= (f38 f39 ?v0) (f38 f39 ?v1)) (= ?v0 ?v1))))
(assert (forall ((?v0 S12) (?v1 S9) (?v2 S9) (?v3 S13) (?v4 S17)) (= (= (f3 (f11 (f12 (f13 f14 ?v0) ?v1) ?v2) (f47 (f48 f49 ?v3) ?v4)) f1) (= (f22 (f17 ?v0 ?v3) ?v4) f1))))
(assert (forall ((?v0 S1) (?v1 S12) (?v2 S13) (?v3 S17)) (= (= (f22 (f18 (f19 f20 ?v0) ?v1) (f50 (f51 f52 ?v2) ?v3)) f1) (= (f22 (f17 ?v1 ?v2) ?v3) f1))))
(assert (= (f22 (f64 f65 f46) (f50 (f51 f52 f66) f67)) f1))
(assert (let ((?v_0 (f38 f39 f40))) (= (f38 f68 ?v_0) ?v_0)))
(assert (exists ((?v0 S13)) (forall ((?v1 S2)) (=> (= (f5 (f6 f7 ?v1) (f8 f9 f10)) f1) (= (f22 (f64 f65 ?v1) (f50 (f51 f52 ?v0) f67)) f1)))))
(assert (forall ((?v0 S2)) (=> (= (f5 (f6 f7 ?v0) (f8 f9 f10)) f1) (= (f22 (f64 f65 ?v0) (f50 (f51 f52 f66) f67)) f1))))
(assert (=> (forall ((?v0 S13)) (=> (forall ((?v1 S2)) (=> (= (f5 (f6 f7 ?v1) (f8 f9 f10)) f1) (= (f22 (f64 f65 ?v1) (f50 (f51 f52 ?v0) f67)) f1))) false)) false))
(assert (forall ((?v0 S13) (?v1 S13)) (= (= (f38 f68 ?v0) (f38 f68 ?v1)) (= ?v0 ?v1))))
(assert (forall ((?v0 S13)) (= (f38 f39 ?v0) (f38 f68 ?v0))))
(assert (forall ((?v0 S13)) (= (f38 f39 ?v0) (f38 f68 ?v0))))
(assert (forall ((?v0 S13)) (let ((?v_0 (f38 f39 ?v0))) (= (f38 f68 ?v_0) ?v_0))))
(assert (forall ((?v0 S36) (?v1 S36) (?v2 S35)) (let ((?v_0 (f70 f71 ?v0))) (=> (= (f69 ?v_0 (f72 f73 (f58 (f59 f60 ?v1) ?v2))) f1) (or (= ?v0 ?v1) (= (f69 ?v_0 (f72 f73 ?v2)) f1))))))
(assert (forall ((?v0 S39) (?v1 S39) (?v2 S36)) (let ((?v_0 (f75 f76 ?v0))) (=> (= (f74 ?v_0 (f77 f78 (f61 (f62 f63 ?v1) ?v2))) f1) (or (= ?v0 ?v1) (= (f74 ?v_0 (f77 f78 ?v2)) f1))))))
(assert (forall ((?v0 S13) (?v1 S13) (?v2 S17)) (let ((?v_0 (f30 f31 ?v0))) (=> (= (f29 ?v_0 (f79 f80 (f50 (f51 f52 ?v1) ?v2))) f1) (or (= ?v0 ?v1) (= (f29 ?v_0 (f79 f80 ?v2)) f1))))))
(assert (forall ((?v0 S2) (?v1 S2) (?v2 S7)) (let ((?v_0 (f6 f7 ?v0))) (=> (= (f5 ?v_0 (f8 f9 (f55 (f56 f57 ?v1) ?v2))) f1) (or (= ?v0 ?v1) (= (f5 ?v_0 (f8 f9 ?v2)) f1))))))
(assert (forall ((?v0 S2)) (=> (= (f5 (f6 f7 ?v0) (f8 f9 f10)) f1) (not (= (f32 f81 ?v0) f26)))))
(assert (forall ((?v0 S36) (?v1 S35)) (= (f72 f73 (f58 (f59 f60 ?v0) ?v1)) (f82 (f83 f84 ?v0) (f72 f73 ?v1)))))
(assert (forall ((?v0 S39) (?v1 S36)) (= (f77 f78 (f61 (f62 f63 ?v0) ?v1)) (f85 (f86 f87 ?v0) (f77 f78 ?v1)))))
(assert (forall ((?v0 S13) (?v1 S17)) (= (f79 f80 (f50 (f51 f52 ?v0) ?v1)) (f34 (f35 f36 ?v0) (f79 f80 ?v1)))))
(assert (forall ((?v0 S2) (?v1 S7)) (= (f8 f9 (f55 (f56 f57 ?v0) ?v1)) (f53 (f88 f89 ?v0) (f8 f9 ?v1)))))
(assert (= (= (f23 (f24 f25 f40) f40) f1) false))
(assert (forall ((?v0 S13) (?v1 S13)) (= (= (f23 (f24 f25 (f38 f39 ?v0)) (f38 f39 ?v1)) f1) (= (f23 (f24 f25 ?v0) ?v1) f1))))
(assert (not (= (f90 f10) f91)))
(assert (forall ((?v0 S36) (?v1 S35)) (=> (not (= (f69 (f70 f71 ?v0) (f72 f73 ?v1)) f1)) (= (f58 (f59 f92 ?v0) ?v1) (f58 (f59 f60 ?v0) ?v1)))))
(assert (forall ((?v0 S39) (?v1 S36)) (=> (not (= (f74 (f75 f76 ?v0) (f77 f78 ?v1)) f1)) (= (f61 (f62 f93 ?v0) ?v1) (f61 (f62 f63 ?v0) ?v1)))))
(assert (forall ((?v0 S13) (?v1 S17)) (=> (not (= (f29 (f30 f31 ?v0) (f79 f80 ?v1)) f1)) (= (f50 (f51 f94 ?v0) ?v1) (f50 (f51 f52 ?v0) ?v1)))))
(assert (forall ((?v0 S2) (?v1 S7)) (=> (not (= (f5 (f6 f7 ?v0) (f8 f9 ?v1)) f1)) (= (f55 (f56 f95 ?v0) ?v1) (f55 (f56 f57 ?v0) ?v1)))))
(assert (forall ((?v0 S36) (?v1 S35)) (= (f58 (f59 f92 ?v0) ?v1) (ite (= (f69 (f70 f71 ?v0) (f72 f73 ?v1)) f1) ?v1 (f58 (f59 f60 ?v0) ?v1)))))
(assert (forall ((?v0 S39) (?v1 S36)) (= (f61 (f62 f93 ?v0) ?v1) (ite (= (f74 (f75 f76 ?v0) (f77 f78 ?v1)) f1) ?v1 (f61 (f62 f63 ?v0) ?v1)))))
(assert (forall ((?v0 S13) (?v1 S17)) (= (f50 (f51 f94 ?v0) ?v1) (ite (= (f29 (f30 f31 ?v0) (f79 f80 ?v1)) f1) ?v1 (f50 (f51 f52 ?v0) ?v1)))))
(assert (forall ((?v0 S2) (?v1 S7)) (= (f55 (f56 f95 ?v0) ?v1) (ite (= (f5 (f6 f7 ?v0) (f8 f9 ?v1)) f1) ?v1 (f55 (f56 f57 ?v0) ?v1)))))
(assert (not (= (f23 f96 (f38 f39 f40)) f1)))
(assert (forall ((?v0 S7) (?v1 S17)) (=> (forall ((?v2 S2)) (=> (= (f5 (f6 f7 ?v2) (f8 f9 ?v0)) f1) (not (= (f32 f33 ?v2) f26)))) (= (exists ((?v2 S13)) (forall ((?v3 S2)) (=> (= (f5 (f6 f7 ?v3) (f8 f9 (f55 f97 ?v0))) f1) (= (f22 (f64 f65 ?v3) (f50 (f51 f52 ?v2) ?v1)) f1)))) (exists ((?v2 S13)) (forall ((?v3 S2)) (=> (= (f5 (f6 f7 ?v3) (f8 f9 ?v0)) f1) (= (f22 (f64 f65 ?v3) (f50 (f51 f52 ?v2) ?v1)) f1))))))))
(check-sat)
(exit)
